C101

VEHICLE
NUMBER     CAPACITY
  25         200

CUSTOMER
CUST NO.  XCOORD.   YCOORD.    DEMAND   READY TIME  DUE DATE   SERVICE   TIME
 
    0      0         0          0          0       1236          0   
    1      0         1         10         100         500          1   
    2      0         2         10          1         500          1   
    3      0         3         10          1         500          1   
    4      0         4         10          1         500          1  
  